# Objective value = 9
WA1n 0
WA1p 0
WA2n 1
WA2p 0
WB1n 0
WB1p 0
WB2n 1
WB2p 0
WC1n 0
WC1p 0
WC2n 0
WC2p 1
WD1n 1
WD1p 0
WD2n 0
WD2p 0
WE1n 0
WE1p 2
WE2n 0
WE2p 0
WT1n 0
WT1p 0
WT2n 0
WT2p 0
100 2000000000
a 0
b 0
c 0
d 0
e 0
f 1
g 0
h 0
i 1
j 0
k 0
l 0
